128
Lattice="12.64 0.0 0.0 0.0 12.64 0.0 0.0 0.0 12.64" Properties=species:S:1:pos:R:3 pbc="T T T"
W        0.00000000       0.00000000       0.00000000
W        1.58000000       1.58000000       1.58000000
W        0.00000000       0.00000000       3.16000000
W        1.58000000       1.58000000       4.74000000
Re       0.00000000       0.00000000       6.32000000
Re       1.58000000       1.58000000       7.90000000
W        0.00000000       0.00000000       9.48000000
W        1.58000000       1.58000000      11.06000000
W        0.00000000       3.16000000       0.00000000
Re       1.58000000       4.74000000       1.58000000
Re       0.00000000       3.16000000       3.16000000
W        1.58000000       4.74000000       4.74000000
Re       0.00000000       3.16000000       6.32000000
W        1.58000000       4.74000000       7.90000000
W        0.00000000       3.16000000       9.48000000
W        1.58000000       4.74000000      11.06000000
Re       0.00000000       6.32000000       0.00000000
W        1.58000000       7.90000000       1.58000000
W        0.00000000       6.32000000       3.16000000
W        1.58000000       7.90000000       4.74000000
W        0.00000000       6.32000000       6.32000000
W        1.58000000       7.90000000       7.90000000
W        0.00000000       6.32000000       9.48000000
W        1.58000000       7.90000000      11.06000000
W        0.00000000       9.48000000       0.00000000
W        1.58000000      11.06000000       1.58000000
Re       0.00000000       9.48000000       3.16000000
Re       1.58000000      11.06000000       4.74000000
W        0.00000000       9.48000000       6.32000000
W        1.58000000      11.06000000       7.90000000
W        0.00000000       9.48000000       9.48000000
W        1.58000000      11.06000000      11.06000000
W        3.16000000       0.00000000       0.00000000
W        4.74000000       1.58000000       1.58000000
W        3.16000000       0.00000000       3.16000000
W        4.74000000       1.58000000       4.74000000
W        3.16000000       0.00000000       6.32000000
Re       4.74000000       1.58000000       7.90000000
Re       3.16000000       0.00000000       9.48000000
W        4.74000000       1.58000000      11.06000000
W        3.16000000       3.16000000       0.00000000
W        4.74000000       4.74000000       1.58000000
W        3.16000000       3.16000000       3.16000000
W        4.74000000       4.74000000       4.74000000
W        3.16000000       3.16000000       6.32000000
Re       4.74000000       4.74000000       7.90000000
W        3.16000000       3.16000000       9.48000000
W        4.74000000       4.74000000      11.06000000
W        3.16000000       6.32000000       0.00000000
Re       4.74000000       7.90000000       1.58000000
W        3.16000000       6.32000000       3.16000000
W        4.74000000       7.90000000       4.74000000
Re       3.16000000       6.32000000       6.32000000
W        4.74000000       7.90000000       7.90000000
W        3.16000000       6.32000000       9.48000000
W        4.74000000       7.90000000      11.06000000
W        3.16000000       9.48000000       0.00000000
W        4.74000000      11.06000000       1.58000000
W        3.16000000       9.48000000       3.16000000
W        4.74000000      11.06000000       4.74000000
W        3.16000000       9.48000000       6.32000000
W        4.74000000      11.06000000       7.90000000
W        3.16000000       9.48000000       9.48000000
W        4.74000000      11.06000000      11.06000000
W        6.32000000       0.00000000       0.00000000
W        7.90000000       1.58000000       1.58000000
W        6.32000000       0.00000000       3.16000000
Re       7.90000000       1.58000000       4.74000000
W        6.32000000       0.00000000       6.32000000
W        7.90000000       1.58000000       7.90000000
W        6.32000000       0.00000000       9.48000000
Re       7.90000000       1.58000000      11.06000000
W        6.32000000       3.16000000       0.00000000
Re       7.90000000       4.74000000       1.58000000
W        6.32000000       3.16000000       3.16000000
W        7.90000000       4.74000000       4.74000000
W        6.32000000       3.16000000       6.32000000
Re       7.90000000       4.74000000       7.90000000
Re       6.32000000       3.16000000       9.48000000
W        7.90000000       4.74000000      11.06000000
W        6.32000000       6.32000000       0.00000000
W        7.90000000       7.90000000       1.58000000
W        6.32000000       6.32000000       3.16000000
W        7.90000000       7.90000000       4.74000000
W        6.32000000       6.32000000       6.32000000
W        7.90000000       7.90000000       7.90000000
W        6.32000000       6.32000000       9.48000000
Re       7.90000000       7.90000000      11.06000000
W        6.32000000       9.48000000       0.00000000
W        7.90000000      11.06000000       1.58000000
Re       6.32000000       9.48000000       3.16000000
Re       7.90000000      11.06000000       4.74000000
W        6.32000000       9.48000000       6.32000000
Re       7.90000000      11.06000000       7.90000000
Re       6.32000000       9.48000000       9.48000000
Re       7.90000000      11.06000000      11.06000000
W        9.48000000       0.00000000       0.00000000
Re      11.06000000       1.58000000       1.58000000
Re       9.48000000       0.00000000       3.16000000
Re      11.06000000       1.58000000       4.74000000
W        9.48000000       0.00000000       6.32000000
W       11.06000000       1.58000000       7.90000000
Re       9.48000000       0.00000000       9.48000000
Re      11.06000000       1.58000000      11.06000000
W        9.48000000       3.16000000       0.00000000
W       11.06000000       4.74000000       1.58000000
W        9.48000000       3.16000000       3.16000000
Re      11.06000000       4.74000000       4.74000000
W        9.48000000       3.16000000       6.32000000
W       11.06000000       4.74000000       7.90000000
W        9.48000000       3.16000000       9.48000000
W       11.06000000       4.74000000      11.06000000
W        9.48000000       6.32000000       0.00000000
W       11.06000000       7.90000000       1.58000000
W        9.48000000       6.32000000       3.16000000
W       11.06000000       7.90000000       4.74000000
Re       9.48000000       6.32000000       6.32000000
W       11.06000000       7.90000000       7.90000000
Re       9.48000000       6.32000000       9.48000000
W       11.06000000       7.90000000      11.06000000
W        9.48000000       9.48000000       0.00000000
W       11.06000000      11.06000000       1.58000000
Re       9.48000000       9.48000000       3.16000000
W       11.06000000      11.06000000       4.74000000
W        9.48000000       9.48000000       6.32000000
W       11.06000000      11.06000000       7.90000000
Re       9.48000000       9.48000000       9.48000000
W       11.06000000      11.06000000      11.06000000
