27
Lattice="9.540000000000001 0.0 0.0 -4.7700000000000005 8.261882352103544 0.0 0.0 -0.0 8.19" Properties=species:S:1:pos:R:3 pbc="T T F"
W        0.00000000       0.00000000       4.09500000
S        1.59000000       0.91798693       5.69000000
S        1.59000000       0.91798693       2.50000000
W       -1.59000000       2.75396078       4.09500000
S        0.00000000       3.67194771       5.69000000
S        0.00000000       3.67194771       2.50000000
W       -3.18000000       5.50792157       4.09500000
S       -1.59000000       6.42590850       5.69000000
S       -1.59000000       6.42590850       2.50000000
W        3.18000000       0.00000000       4.09500000
S        4.77000000       0.91798693       5.69000000
S        4.77000000       0.91798693       2.50000000
W        1.59000000       2.75396078       4.09500000
S        3.18000000       3.67194771       5.69000000
S        3.18000000       3.67194771       2.50000000
W        0.00000000       5.50792157       4.09500000
S        1.59000000       6.42590850       5.69000000
S        1.59000000       6.42590850       2.50000000
W        6.36000000       0.00000000       4.09500000
S        7.95000000       0.91798693       5.69000000
S        7.95000000       0.91798693       2.50000000
W        4.77000000       2.75396078       4.09500000
S        6.36000000       3.67194771       5.69000000
S        6.36000000       3.67194771       2.50000000
W        3.18000000       5.50792157       4.09500000
S        4.77000000       6.42590850       5.69000000
S        4.77000000       6.42590850       2.50000000
